p cnf 314 7974
c 'COVERED'2
1  0
c 'COVERED'3
1 2 3  0
c 'COVERED'4
1 2 4 5 6 29  0
c 'COVERED'5
2 4 7 8 9 33  0
c 'COVERED'6
4 7 10 11 12 37  0
c 'COVERED'7
7 10 13 14 15 41  0
c 'COVERED'8
10 13 16 17 18 45  0
c 'COVERED'9
13 16 19 20 21 49  0
c 'COVERED'10
16 19 22 23 24 53  0
c 'COVERED'11
19 22 25 26 57  0
c 'COVERED'12
22 27  0
c 'COVERED'14
28  0
c 'COVERED'16
1 3 5 29 30 31 32 67  0
c 'COVERED'17
2 3 5 6 8 29 30 33 34 35 36 71  0
c 'COVERED'18
4 6 8 9 11 29 30 33 34 37 38 39 40 75  0
c 'COVERED'19
7 9 11 12 14 33 34 37 38 41 42 43 44 79  0
c 'COVERED'20
10 12 14 15 17 37 38 41 42 45 46 47 48 83  0
c 'COVERED'21
13 15 17 18 20 41 42 45 46 49 50 51 52 87  0
c 'COVERED'22
16 18 20 21 23 45 46 49 50 53 54 55 56 91  0
c 'COVERED'23
19 21 23 24 25 49 50 53 54 57 58 59 60 95  0
c 'COVERED'24
22 24 25 26 27 53 54 57 58 61 62 99  0
c 'COVERED'25
26 27 57 58 63 64 103  0
c 'COVERED'27
28 65 66  0
c 'COVERED'28
28 31 65 67 68 69 70 110  0
c 'COVERED'29
3 31 32 35 65 67 68 71 72 73 74 113  0
c 'COVERED'30
5 6 30 32 35 36 39 67 68 71 72 75 76 77 78 117  0
c 'COVERED'31
8 9 34 36 39 40 43 71 72 75 76 79 80 81 82 121  0
c 'COVERED'32
11 12 38 40 43 44 47 75 76 79 80 83 84 85 86 125  0
c 'COVERED'33
14 15 42 44 47 48 51 79 80 83 84 87 88 89 90 129  0
c 'COVERED'34
17 18 46 48 51 52 55 83 84 87 88 91 92 93 94 133  0
c 'COVERED'35
20 21 50 52 55 56 59 87 88 91 92 95 96 97 98 137  0
c 'COVERED'36
23 24 54 56 59 60 61 91 92 95 96 99 100 101 102 141  0
c 'COVERED'37
25 26 58 60 61 62 63 95 96 99 100 103 104 105 106 145  0
c 'COVERED'38
27 62 63 64 99 100 103 104 107 108 149  0
c 'COVERED'39
64 103 104 109  0
c 'COVERED'40
28 66 69 110 111 112  0
c 'COVERED'41
65 66 69 70 73 110 111 113 114 115 116 156  0
c 'COVERED'42
31 32 68 70 73 74 77 110 111 113 114 117 118 119 120 159  0
c 'COVERED'43
35 36 72 74 77 78 81 113 114 117 118 121 122 123 124 163  0
c 'COVERED'44
39 40 76 78 81 82 85 117 118 121 122 125 126 127 128 167  0
c 'COVERED'45
43 44 80 82 85 86 89 121 122 125 126 129 130 131 132 171  0
c 'COVERED'46
47 48 84 86 89 90 93 125 126 129 130 133 134 135 136 175  0
c 'COVERED'47
51 52 88 90 93 94 97 129 130 133 134 137 138 139 140 179  0
c 'COVERED'48
55 56 92 94 97 98 101 133 134 137 138 141 142 143 144 183  0
c 'COVERED'49
59 60 96 98 101 102 105 137 138 141 142 145 146 147 148 187  0
c 'COVERED'50
61 62 100 102 105 106 107 141 142 145 146 149 150 151 152 191  0
c 'COVERED'51
63 64 104 106 107 108 109 145 146 149 150 153 154 195  0
c 'COVERED'52
108 109 149 150 155  0
c 'COVERED'53
66 112 115 156 157 158  0
c 'COVERED'54
69 70 111 112 115 116 119 156 157 159 160 161 162 201  0
c 'COVERED'55
73 74 114 116 119 120 123 156 157 159 160 163 164 165 166 204  0
c 'COVERED'56
77 78 118 120 123 124 127 159 160 163 164 167 168 169 170 208  0
c 'COVERED'57
81 82 122 124 127 128 131 163 164 167 168 171 172 173 174 212  0
c 'COVERED'58
85 86 126 128 131 132 135 167 168 171 172 175 176 177 178 216  0
c 'COVERED'59
89 90 130 132 135 136 139 171 172 175 176 179 180 181 182 220  0
c 'COVERED'60
93 94 134 136 139 140 143 175 176 179 180 183 184 185 186 224  0
c 'COVERED'61
97 98 138 140 143 144 147 179 180 183 184 187 188 189 190 228  0
c 'COVERED'62
101 102 142 144 147 148 151 183 184 187 188 191 192 193 194 232  0
c 'COVERED'63
105 106 146 148 151 152 153 187 188 191 192 195 196 197 198 236  0
c 'COVERED'64
107 108 150 152 153 154 155 191 192 195 196 199 200 240  0
c 'COVERED'65
109 154 155 195 196  0
c 'COVERED'66
112 158 161 201 202 203  0
c 'COVERED'67
115 116 157 158 161 162 165 201 202 204 205 206 207 245  0
c 'COVERED'68
119 120 160 162 165 166 169 201 202 204 205 208 209 210 211 248  0
c 'COVERED'69
123 124 164 166 169 170 173 204 205 208 209 212 213 214 215 252  0
c 'COVERED'70
127 128 168 170 173 174 177 208 209 212 213 216 217 218 219 256  0
c 'COVERED'71
131 132 172 174 177 178 181 212 213 216 217 220 221 222 223 258  0
c 'COVERED'72
135 136 176 178 181 182 185 216 217 220 221 224 225 226 227 262  0
c 'COVERED'73
139 140 180 182 185 186 189 220 221 224 225 228 229 230 231 266  0
c 'COVERED'74
143 144 184 186 189 190 193 224 225 228 229 232 233 234 235 270  0
c 'COVERED'75
147 148 188 190 193 194 197 228 229 232 233 236 237 238 239 274  0
c 'COVERED'76
151 152 192 194 197 198 199 232 233 236 237 240 241 242 243 278  0
c 'COVERED'77
153 154 196 198 199 200 236 237 240 241 244  0
c 'COVERED'78
155 200 240 241  0
c 'COVERED'79
158 203 206 245 246 247  0
c 'COVERED'80
161 162 202 203 206 207 210 245 246 248 249 250 251 286  0
c 'COVERED'81
165 166 205 207 210 211 214 245 246 248 249 252 253 254 255 288  0
c 'COVERED'82
169 170 209 211 214 215 218 248 249 252 253 256 257 290  0
c 'COVERED'83
173 174 213 215 218 219 222 252 253 256 257 258 259 260 261 291  0
c 'COVERED'84
177 178 217 219 222 223 226 256 257 258 259 262 263 264 265 293  0
c 'COVERED'85
181 182 221 223 226 227 230 258 259 262 263 266 267 268 269 295  0
c 'COVERED'86
185 186 225 227 230 231 234 262 263 266 267 270 271 272 273 297  0
c 'COVERED'87
189 190 229 231 234 235 238 266 267 270 271 274 275 276 277 299  0
c 'COVERED'88
193 194 233 235 238 239 242 270 271 274 275 278 279 280 281 301  0
c 'COVERED'89
197 198 237 239 242 243 244 274 275 278 279 282 283 303  0
c 'COVERED'90
199 200 241 243 244 278 279 284 285 305  0
c 'COVERED'92
203 247 250 286 287  0
c 'COVERED'93
206 207 246 247 250 251 254 286 287 288 289 307  0
c 'COVERED'94
210 211 249 251 254 255 286 287 288 289 290  0
c 'COVERED'95
214 215 253 255 260 288 289 290 291 292  0
c 'COVERED'96
218 219 257 260 261 264 290 291 292 293 294  0
c 'COVERED'97
222 223 259 261 264 265 268 291 292 293 294 295 296 308  0
c 'COVERED'98
226 227 263 265 268 269 272 293 294 295 296 297 298 309  0
c 'COVERED'99
230 231 267 269 272 273 276 295 296 297 298 299 300 310  0
c 'COVERED'100
234 235 271 273 276 277 280 297 298 299 300 301 302 311  0
c 'COVERED'101
238 239 275 277 280 281 282 299 300 301 302 303 304 312  0
c 'COVERED'102
242 243 279 281 282 283 284 301 302 303 304 305 306 313  0
c 'COVERED'103
244 283 284 285 303 304 305 306 314  0
c 'COVERED'104
285 305 306  0
c 'COVERED'105
247 307  0
c 'COVERED'106
250 251 287 307  0
c 'COVERED'107
254 255 289 307  0
c 'COVERED'109
260 261 292 308  0
c 'COVERED'110
264 265 294 308 309  0
c 'COVERED'111
268 269 296 308 309 310  0
c 'COVERED'112
272 273 298 309 310 311  0
c 'COVERED'113
276 277 300 310 311 312  0
c 'COVERED'114
280 281 302 311 312 313  0
c 'COVERED'115
282 283 304 312 313 314  0
c 'COVERED'116
284 285 306 313 314  0
c 'COVERED'117
314  0
-1 -2 0
-1 -3 0
-2 -3 0
-1 -2 0
-1 -4 0
-1 -5 0
-1 -6 0
-1 -29 0
-2 -4 0
-2 -5 0
-2 -6 0
-2 -29 0
-4 -5 0
-4 -6 0
-4 -29 0
-5 -6 0
-5 -29 0
-6 -29 0
-2 -4 0
-2 -7 0
-2 -8 0
-2 -9 0
-2 -33 0
-4 -7 0
-4 -8 0
-4 -9 0
-4 -33 0
-7 -8 0
-7 -9 0
-7 -33 0
-8 -9 0
-8 -33 0
-9 -33 0
-4 -7 0
-4 -10 0
-4 -11 0
-4 -12 0
-4 -37 0
-7 -10 0
-7 -11 0
-7 -12 0
-7 -37 0
-10 -11 0
-10 -12 0
-10 -37 0
-11 -12 0
-11 -37 0
-12 -37 0
-7 -10 0
-7 -13 0
-7 -14 0
-7 -15 0
-7 -41 0
-10 -13 0
-10 -14 0
-10 -15 0
-10 -41 0
-13 -14 0
-13 -15 0
-13 -41 0
-14 -15 0
-14 -41 0
-15 -41 0
-10 -13 0
-10 -16 0
-10 -17 0
-10 -18 0
-10 -45 0
-13 -16 0
-13 -17 0
-13 -18 0
-13 -45 0
-16 -17 0
-16 -18 0
-16 -45 0
-17 -18 0
-17 -45 0
-18 -45 0
-13 -16 0
-13 -19 0
-13 -20 0
-13 -21 0
-13 -49 0
-16 -19 0
-16 -20 0
-16 -21 0
-16 -49 0
-19 -20 0
-19 -21 0
-19 -49 0
-20 -21 0
-20 -49 0
-21 -49 0
-16 -19 0
-16 -22 0
-16 -23 0
-16 -24 0
-16 -53 0
-19 -22 0
-19 -23 0
-19 -24 0
-19 -53 0
-22 -23 0
-22 -24 0
-22 -53 0
-23 -24 0
-23 -53 0
-24 -53 0
-19 -22 0
-19 -25 0
-19 -26 0
-19 -57 0
-22 -25 0
-22 -26 0
-22 -57 0
-25 -26 0
-25 -57 0
-26 -57 0
-22 -27 0
-1 -3 0
-1 -5 0
-1 -29 0
-1 -30 0
-1 -31 0
-1 -32 0
-1 -67 0
-3 -5 0
-3 -29 0
-3 -30 0
-3 -31 0
-3 -32 0
-3 -67 0
-5 -29 0
-5 -30 0
-5 -31 0
-5 -32 0
-5 -67 0
-29 -30 0
-29 -31 0
-29 -32 0
-29 -67 0
-30 -31 0
-30 -32 0
-30 -67 0
-31 -32 0
-31 -67 0
-32 -67 0
-2 -3 0
-2 -5 0
-2 -6 0
-2 -8 0
-2 -29 0
-2 -30 0
-2 -33 0
-2 -34 0
-2 -35 0
-2 -36 0
-2 -71 0
-3 -5 0
-3 -6 0
-3 -8 0
-3 -29 0
-3 -30 0
-3 -33 0
-3 -34 0
-3 -35 0
-3 -36 0
-3 -71 0
-5 -6 0
-5 -8 0
-5 -29 0
-5 -30 0
-5 -33 0
-5 -34 0
-5 -35 0
-5 -36 0
-5 -71 0
-6 -8 0
-6 -29 0
-6 -30 0
-6 -33 0
-6 -34 0
-6 -35 0
-6 -36 0
-6 -71 0
-8 -29 0
-8 -30 0
-8 -33 0
-8 -34 0
-8 -35 0
-8 -36 0
-8 -71 0
-29 -30 0
-29 -33 0
-29 -34 0
-29 -35 0
-29 -36 0
-29 -71 0
-30 -33 0
-30 -34 0
-30 -35 0
-30 -36 0
-30 -71 0
-33 -34 0
-33 -35 0
-33 -36 0
-33 -71 0
-34 -35 0
-34 -36 0
-34 -71 0
-35 -36 0
-35 -71 0
-36 -71 0
-4 -6 0
-4 -8 0
-4 -9 0
-4 -11 0
-4 -29 0
-4 -30 0
-4 -33 0
-4 -34 0
-4 -37 0
-4 -38 0
-4 -39 0
-4 -40 0
-4 -75 0
-6 -8 0
-6 -9 0
-6 -11 0
-6 -29 0
-6 -30 0
-6 -33 0
-6 -34 0
-6 -37 0
-6 -38 0
-6 -39 0
-6 -40 0
-6 -75 0
-8 -9 0
-8 -11 0
-8 -29 0
-8 -30 0
-8 -33 0
-8 -34 0
-8 -37 0
-8 -38 0
-8 -39 0
-8 -40 0
-8 -75 0
-9 -11 0
-9 -29 0
-9 -30 0
-9 -33 0
-9 -34 0
-9 -37 0
-9 -38 0
-9 -39 0
-9 -40 0
-9 -75 0
-11 -29 0
-11 -30 0
-11 -33 0
-11 -34 0
-11 -37 0
-11 -38 0
-11 -39 0
-11 -40 0
-11 -75 0
-29 -30 0
-29 -33 0
-29 -34 0
-29 -37 0
-29 -38 0
-29 -39 0
-29 -40 0
-29 -75 0
-30 -33 0
-30 -34 0
-30 -37 0
-30 -38 0
-30 -39 0
-30 -40 0
-30 -75 0
-33 -34 0
-33 -37 0
-33 -38 0
-33 -39 0
-33 -40 0
-33 -75 0
-34 -37 0
-34 -38 0
-34 -39 0
-34 -40 0
-34 -75 0
-37 -38 0
-37 -39 0
-37 -40 0
-37 -75 0
-38 -39 0
-38 -40 0
-38 -75 0
-39 -40 0
-39 -75 0
-40 -75 0
-7 -9 0
-7 -11 0
-7 -12 0
-7 -14 0
-7 -33 0
-7 -34 0
-7 -37 0
-7 -38 0
-7 -41 0
-7 -42 0
-7 -43 0
-7 -44 0
-7 -79 0
-9 -11 0
-9 -12 0
-9 -14 0
-9 -33 0
-9 -34 0
-9 -37 0
-9 -38 0
-9 -41 0
-9 -42 0
-9 -43 0
-9 -44 0
-9 -79 0
-11 -12 0
-11 -14 0
-11 -33 0
-11 -34 0
-11 -37 0
-11 -38 0
-11 -41 0
-11 -42 0
-11 -43 0
-11 -44 0
-11 -79 0
-12 -14 0
-12 -33 0
-12 -34 0
-12 -37 0
-12 -38 0
-12 -41 0
-12 -42 0
-12 -43 0
-12 -44 0
-12 -79 0
-14 -33 0
-14 -34 0
-14 -37 0
-14 -38 0
-14 -41 0
-14 -42 0
-14 -43 0
-14 -44 0
-14 -79 0
-33 -34 0
-33 -37 0
-33 -38 0
-33 -41 0
-33 -42 0
-33 -43 0
-33 -44 0
-33 -79 0
-34 -37 0
-34 -38 0
-34 -41 0
-34 -42 0
-34 -43 0
-34 -44 0
-34 -79 0
-37 -38 0
-37 -41 0
-37 -42 0
-37 -43 0
-37 -44 0
-37 -79 0
-38 -41 0
-38 -42 0
-38 -43 0
-38 -44 0
-38 -79 0
-41 -42 0
-41 -43 0
-41 -44 0
-41 -79 0
-42 -43 0
-42 -44 0
-42 -79 0
-43 -44 0
-43 -79 0
-44 -79 0
-10 -12 0
-10 -14 0
-10 -15 0
-10 -17 0
-10 -37 0
-10 -38 0
-10 -41 0
-10 -42 0
-10 -45 0
-10 -46 0
-10 -47 0
-10 -48 0
-10 -83 0
-12 -14 0
-12 -15 0
-12 -17 0
-12 -37 0
-12 -38 0
-12 -41 0
-12 -42 0
-12 -45 0
-12 -46 0
-12 -47 0
-12 -48 0
-12 -83 0
-14 -15 0
-14 -17 0
-14 -37 0
-14 -38 0
-14 -41 0
-14 -42 0
-14 -45 0
-14 -46 0
-14 -47 0
-14 -48 0
-14 -83 0
-15 -17 0
-15 -37 0
-15 -38 0
-15 -41 0
-15 -42 0
-15 -45 0
-15 -46 0
-15 -47 0
-15 -48 0
-15 -83 0
-17 -37 0
-17 -38 0
-17 -41 0
-17 -42 0
-17 -45 0
-17 -46 0
-17 -47 0
-17 -48 0
-17 -83 0
-37 -38 0
-37 -41 0
-37 -42 0
-37 -45 0
-37 -46 0
-37 -47 0
-37 -48 0
-37 -83 0
-38 -41 0
-38 -42 0
-38 -45 0
-38 -46 0
-38 -47 0
-38 -48 0
-38 -83 0
-41 -42 0
-41 -45 0
-41 -46 0
-41 -47 0
-41 -48 0
-41 -83 0
-42 -45 0
-42 -46 0
-42 -47 0
-42 -48 0
-42 -83 0
-45 -46 0
-45 -47 0
-45 -48 0
-45 -83 0
-46 -47 0
-46 -48 0
-46 -83 0
-47 -48 0
-47 -83 0
-48 -83 0
-13 -15 0
-13 -17 0
-13 -18 0
-13 -20 0
-13 -41 0
-13 -42 0
-13 -45 0
-13 -46 0
-13 -49 0
-13 -50 0
-13 -51 0
-13 -52 0
-13 -87 0
-15 -17 0
-15 -18 0
-15 -20 0
-15 -41 0
-15 -42 0
-15 -45 0
-15 -46 0
-15 -49 0
-15 -50 0
-15 -51 0
-15 -52 0
-15 -87 0
-17 -18 0
-17 -20 0
-17 -41 0
-17 -42 0
-17 -45 0
-17 -46 0
-17 -49 0
-17 -50 0
-17 -51 0
-17 -52 0
-17 -87 0
-18 -20 0
-18 -41 0
-18 -42 0
-18 -45 0
-18 -46 0
-18 -49 0
-18 -50 0
-18 -51 0
-18 -52 0
-18 -87 0
-20 -41 0
-20 -42 0
-20 -45 0
-20 -46 0
-20 -49 0
-20 -50 0
-20 -51 0
-20 -52 0
-20 -87 0
-41 -42 0
-41 -45 0
-41 -46 0
-41 -49 0
-41 -50 0
-41 -51 0
-41 -52 0
-41 -87 0
-42 -45 0
-42 -46 0
-42 -49 0
-42 -50 0
-42 -51 0
-42 -52 0
-42 -87 0
-45 -46 0
-45 -49 0
-45 -50 0
-45 -51 0
-45 -52 0
-45 -87 0
-46 -49 0
-46 -50 0
-46 -51 0
-46 -52 0
-46 -87 0
-49 -50 0
-49 -51 0
-49 -52 0
-49 -87 0
-50 -51 0
-50 -52 0
-50 -87 0
-51 -52 0
-51 -87 0
-52 -87 0
-16 -18 0
-16 -20 0
-16 -21 0
-16 -23 0
-16 -45 0
-16 -46 0
-16 -49 0
-16 -50 0
-16 -53 0
-16 -54 0
-16 -55 0
-16 -56 0
-16 -91 0
-18 -20 0
-18 -21 0
-18 -23 0
-18 -45 0
-18 -46 0
-18 -49 0
-18 -50 0
-18 -53 0
-18 -54 0
-18 -55 0
-18 -56 0
-18 -91 0
-20 -21 0
-20 -23 0
-20 -45 0
-20 -46 0
-20 -49 0
-20 -50 0
-20 -53 0
-20 -54 0
-20 -55 0
-20 -56 0
-20 -91 0
-21 -23 0
-21 -45 0
-21 -46 0
-21 -49 0
-21 -50 0
-21 -53 0
-21 -54 0
-21 -55 0
-21 -56 0
-21 -91 0
-23 -45 0
-23 -46 0
-23 -49 0
-23 -50 0
-23 -53 0
-23 -54 0
-23 -55 0
-23 -56 0
-23 -91 0
-45 -46 0
-45 -49 0
-45 -50 0
-45 -53 0
-45 -54 0
-45 -55 0
-45 -56 0
-45 -91 0
-46 -49 0
-46 -50 0
-46 -53 0
-46 -54 0
-46 -55 0
-46 -56 0
-46 -91 0
-49 -50 0
-49 -53 0
-49 -54 0
-49 -55 0
-49 -56 0
-49 -91 0
-50 -53 0
-50 -54 0
-50 -55 0
-50 -56 0
-50 -91 0
-53 -54 0
-53 -55 0
-53 -56 0
-53 -91 0
-54 -55 0
-54 -56 0
-54 -91 0
-55 -56 0
-55 -91 0
-56 -91 0
-19 -21 0
-19 -23 0
-19 -24 0
-19 -25 0
-19 -49 0
-19 -50 0
-19 -53 0
-19 -54 0
-19 -57 0
-19 -58 0
-19 -59 0
-19 -60 0
-19 -95 0
-21 -23 0
-21 -24 0
-21 -25 0
-21 -49 0
-21 -50 0
-21 -53 0
-21 -54 0
-21 -57 0
-21 -58 0
-21 -59 0
-21 -60 0
-21 -95 0
-23 -24 0
-23 -25 0
-23 -49 0
-23 -50 0
-23 -53 0
-23 -54 0
-23 -57 0
-23 -58 0
-23 -59 0
-23 -60 0
-23 -95 0
-24 -25 0
-24 -49 0
-24 -50 0
-24 -53 0
-24 -54 0
-24 -57 0
-24 -58 0
-24 -59 0
-24 -60 0
-24 -95 0
-25 -49 0
-25 -50 0
-25 -53 0
-25 -54 0
-25 -57 0
-25 -58 0
-25 -59 0
-25 -60 0
-25 -95 0
-49 -50 0
-49 -53 0
-49 -54 0
-49 -57 0
-49 -58 0
-49 -59 0
-49 -60 0
-49 -95 0
-50 -53 0
-50 -54 0
-50 -57 0
-50 -58 0
-50 -59 0
-50 -60 0
-50 -95 0
-53 -54 0
-53 -57 0
-53 -58 0
-53 -59 0
-53 -60 0
-53 -95 0
-54 -57 0
-54 -58 0
-54 -59 0
-54 -60 0
-54 -95 0
-57 -58 0
-57 -59 0
-57 -60 0
-57 -95 0
-58 -59 0
-58 -60 0
-58 -95 0
-59 -60 0
-59 -95 0
-60 -95 0
-22 -24 0
-22 -25 0
-22 -26 0
-22 -27 0
-22 -53 0
-22 -54 0
-22 -57 0
-22 -58 0
-22 -61 0
-22 -62 0
-22 -99 0
-24 -25 0
-24 -26 0
-24 -27 0
-24 -53 0
-24 -54 0
-24 -57 0
-24 -58 0
-24 -61 0
-24 -62 0
-24 -99 0
-25 -26 0
-25 -27 0
-25 -53 0
-25 -54 0
-25 -57 0
-25 -58 0
-25 -61 0
-25 -62 0
-25 -99 0
-26 -27 0
-26 -53 0
-26 -54 0
-26 -57 0
-26 -58 0
-26 -61 0
-26 -62 0
-26 -99 0
-27 -53 0
-27 -54 0
-27 -57 0
-27 -58 0
-27 -61 0
-27 -62 0
-27 -99 0
-53 -54 0
-53 -57 0
-53 -58 0
-53 -61 0
-53 -62 0
-53 -99 0
-54 -57 0
-54 -58 0
-54 -61 0
-54 -62 0
-54 -99 0
-57 -58 0
-57 -61 0
-57 -62 0
-57 -99 0
-58 -61 0
-58 -62 0
-58 -99 0
-61 -62 0
-61 -99 0
-62 -99 0
-26 -27 0
-26 -57 0
-26 -58 0
-26 -63 0
-26 -64 0
-26 -103 0
-27 -57 0
-27 -58 0
-27 -63 0
-27 -64 0
-27 -103 0
-57 -58 0
-57 -63 0
-57 -64 0
-57 -103 0
-58 -63 0
-58 -64 0
-58 -103 0
-63 -64 0
-63 -103 0
-64 -103 0
-28 -65 0
-28 -66 0
-65 -66 0
-28 -31 0
-28 -65 0
-28 -67 0
-28 -68 0
-28 -69 0
-28 -70 0
-28 -110 0
-31 -65 0
-31 -67 0
-31 -68 0
-31 -69 0
-31 -70 0
-31 -110 0
-65 -67 0
-65 -68 0
-65 -69 0
-65 -70 0
-65 -110 0
-67 -68 0
-67 -69 0
-67 -70 0
-67 -110 0
-68 -69 0
-68 -70 0
-68 -110 0
-69 -70 0
-69 -110 0
-70 -110 0
-3 -31 0
-3 -32 0
-3 -35 0
-3 -65 0
-3 -67 0
-3 -68 0
-3 -71 0
-3 -72 0
-3 -73 0
-3 -74 0
-3 -113 0
-31 -32 0
-31 -35 0
-31 -65 0
-31 -67 0
-31 -68 0
-31 -71 0
-31 -72 0
-31 -73 0
-31 -74 0
-31 -113 0
-32 -35 0
-32 -65 0
-32 -67 0
-32 -68 0
-32 -71 0
-32 -72 0
-32 -73 0
-32 -74 0
-32 -113 0
-35 -65 0
-35 -67 0
-35 -68 0
-35 -71 0
-35 -72 0
-35 -73 0
-35 -74 0
-35 -113 0
-65 -67 0
-65 -68 0
-65 -71 0
-65 -72 0
-65 -73 0
-65 -74 0
-65 -113 0
-67 -68 0
-67 -71 0
-67 -72 0
-67 -73 0
-67 -74 0
-67 -113 0
-68 -71 0
-68 -72 0
-68 -73 0
-68 -74 0
-68 -113 0
-71 -72 0
-71 -73 0
-71 -74 0
-71 -113 0
-72 -73 0
-72 -74 0
-72 -113 0
-73 -74 0
-73 -113 0
-74 -113 0
-5 -6 0
-5 -30 0
-5 -32 0
-5 -35 0
-5 -36 0
-5 -39 0
-5 -67 0
-5 -68 0
-5 -71 0
-5 -72 0
-5 -75 0
-5 -76 0
-5 -77 0
-5 -78 0
-5 -117 0
-6 -30 0
-6 -32 0
-6 -35 0
-6 -36 0
-6 -39 0
-6 -67 0
-6 -68 0
-6 -71 0
-6 -72 0
-6 -75 0
-6 -76 0
-6 -77 0
-6 -78 0
-6 -117 0
-30 -32 0
-30 -35 0
-30 -36 0
-30 -39 0
-30 -67 0
-30 -68 0
-30 -71 0
-30 -72 0
-30 -75 0
-30 -76 0
-30 -77 0
-30 -78 0
-30 -117 0
-32 -35 0
-32 -36 0
-32 -39 0
-32 -67 0
-32 -68 0
-32 -71 0
-32 -72 0
-32 -75 0
-32 -76 0
-32 -77 0
-32 -78 0
-32 -117 0
-35 -36 0
-35 -39 0
-35 -67 0
-35 -68 0
-35 -71 0
-35 -72 0
-35 -75 0
-35 -76 0
-35 -77 0
-35 -78 0
-35 -117 0
-36 -39 0
-36 -67 0
-36 -68 0
-36 -71 0
-36 -72 0
-36 -75 0
-36 -76 0
-36 -77 0
-36 -78 0
-36 -117 0
-39 -67 0
-39 -68 0
-39 -71 0
-39 -72 0
-39 -75 0
-39 -76 0
-39 -77 0
-39 -78 0
-39 -117 0
-67 -68 0
-67 -71 0
-67 -72 0
-67 -75 0
-67 -76 0
-67 -77 0
-67 -78 0
-67 -117 0
-68 -71 0
-68 -72 0
-68 -75 0
-68 -76 0
-68 -77 0
-68 -78 0
-68 -117 0
-71 -72 0
-71 -75 0
-71 -76 0
-71 -77 0
-71 -78 0
-71 -117 0
-72 -75 0
-72 -76 0
-72 -77 0
-72 -78 0
-72 -117 0
-75 -76 0
-75 -77 0
-75 -78 0
-75 -117 0
-76 -77 0
-76 -78 0
-76 -117 0
-77 -78 0
-77 -117 0
-78 -117 0
-8 -9 0
-8 -34 0
-8 -36 0
-8 -39 0
-8 -40 0
